# Solution for model p01_budget_1p330
# Objective value = 1.3300000000000636e+00
Risk 1.3300000000000636e+00
0 0
1 0
3 0.001
4 30.001
5 3.0002000000000002e+01
6 40.002
7 30.001
9 6.2287468081853696e+01
c(0,1)_Rl 0.001
c(0,1)_Ru 0
c(0,3)_Rl 0
c(0,3)_Ru 0
c(3,4)_Rl 0
c(3,4)_Ru 0
c(4,5)_Rl 0
c(4,5)_Ru 0
c(3,5)_Rl 0
c(3,5)_Ru 0
c(1,2)_l 0
c(1,2)_u 30
c(2,7)_Fl 0
c(2,7)_Fu 5.4361580748444238e-01
c(1,7)_Rl 0
c(1,7)_Ru 0
c(5,6)_Rl 0
c(5,6)_Ru 0
c(3,6)_Rl 0
c(3,6)_Ru 0
c(7,8)_l 0
c(7,8)_u 3.2285468081853693e+01
c(1,8)_Fl 0
c(1,8)_Fu 3.9319209625781060e-01
c(0,9)_Rl 0
c(0,9)_Ru 2.6286868081853697e+01
c(8,9)_Fl 0
c(8,9)_Fu 3.9319209625781060e-01
c(6,9)_Rl 0
c(6,9)_Ru 0
Cost 26.2878680818537
